p cnf 508 1936
-5 -9 19 0
43 41 -1 0
10 8 32 0
15 25 20 0
30 18 6 0
39 -42 44 0
41 28 -25 0
-44 39 6 0
-6 31 33 0
38 18 -7 0
31 -7 38 0
32 41 26 0
-15 16 -29 0
13 -1 16 0
4 34 -46 0
-39 -35 16 0
-13 -9 -38 0
-25 38 6 0
21 25 -46 0
45 -28 -15 0
2 47 -44 0
10 -39 42 0
3 46 -20 0
-10 -19 27 0
-28 35 16 0
-27 13 -18 0
10 -39 -49 0
42 44 -38 0
-23 39 16 0
34 -18 -14 0
34 2 35 0
-26 38 -3 0
44 -8 -28 0
28 12 32 0
-16 40 -28 0
31 -36 27 0
23 -8 16 0
-34 -16 39 0
-16 -22 20 0
-28 -48 -22 0
15 24 -41 0
-7 -39 15 0
3 10 -2 0
-21 -25 -18 0
39 31 -38 0
14 22 -5 0
-11 49 27 0
-25 21 -37 0
42 46 -44 0
-27 -30 5 0
4 7 51 0
-4 7 -51 0
4 -7 -51 0
-4 -7 51 0
10 -13 52 0
-10 -13 -52 0
10 13 -52 0
-10 13 52 0
14 -15 53 0
-14 -15 -53 0
14 15 -53 0
-14 15 53 0
16 18 54 0
-16 18 -54 0
16 -18 -54 0
-16 -18 54 0
-21 -24 55 0
21 -24 -55 0
-21 24 -55 0
21 24 55 0
27 -32 56 0
-27 -32 -56 0
27 32 -56 0
-27 32 56 0
-33 -34 57 0
33 -34 -57 0
-33 34 -57 0
33 34 57 0
-35 -36 58 0
35 -36 -58 0
-35 36 -58 0
35 36 58 0
-40 -42 59 0
40 -42 -59 0
-40 42 -59 0
40 42 59 0
44 45 60 0
-44 45 -60 0
44 -45 -60 0
-44 -45 60 0
-47 -48 61 0
47 -48 -61 0
-47 48 -61 0
47 48 61 0
-49 -50 62 0
49 -50 -62 0
-49 50 -62 0
49 50 62 0
51 -52 63 0
-51 -52 -63 0
51 52 -63 0
-51 52 63 0
53 -54 64 0
-53 -54 -64 0
53 54 -64 0
-53 54 64 0
55 -56 65 0
-55 -56 -65 0
55 56 -65 0
-55 56 65 0
57 -58 66 0
-57 -58 -66 0
57 58 -66 0
-57 58 66 0
59 -60 67 0
-59 -60 -67 0
59 60 -67 0
-59 60 67 0
61 -62 68 0
-61 -62 -68 0
61 62 -68 0
-61 62 68 0
63 -64 69 0
-63 -64 -69 0
63 64 -69 0
-63 64 69 0
65 -66 70 0
-65 -66 -70 0
65 66 -70 0
-65 66 70 0
67 -68 71 0
-67 -68 -71 0
67 68 -71 0
-67 68 71 0
-69 -70 71 0
69 -70 -71 0
-69 70 -71 0
69 70 71 0
2 -3 72 0
-2 -3 -72 0
2 3 -72 0
-2 3 72 0
4 7 73 0
-4 7 -73 0
4 -7 -73 0
-4 -7 73 0
12 -13 74 0
-12 -13 -74 0
12 13 -74 0
-12 13 74 0
17 21 75 0
-17 21 -75 0
17 -21 -75 0
-17 -21 75 0
22 24 76 0
-22 24 -76 0
22 -24 -76 0
-22 -24 76 0
26 27 77 0
-26 27 -77 0
26 -27 -77 0
-26 -27 77 0
-31 -32 78 0
31 -32 -78 0
-31 32 -78 0
31 32 78 0
-34 36 79 0
34 36 -79 0
-34 -36 -79 0
34 -36 79 0
-37 38 80 0
37 38 -80 0
-37 -38 -80 0
37 -38 80 0
-41 -42 81 0
41 -42 -81 0
-41 42 -81 0
41 42 81 0
-45 -47 82 0
45 -47 -82 0
-45 47 -82 0
45 47 82 0
48 49 83 0
-48 49 -83 0
48 -49 -83 0
-48 -49 83 0
71 -72 84 0
-71 -72 -84 0
71 72 -84 0
-71 72 84 0
73 -74 85 0
-73 -74 -85 0
73 74 -85 0
-73 74 85 0
75 -76 86 0
-75 -76 -86 0
75 76 -86 0
-75 76 86 0
77 -78 87 0
-77 -78 -87 0
77 78 -87 0
-77 78 87 0
79 -80 88 0
-79 -80 -88 0
79 80 -88 0
-79 80 88 0
81 -82 89 0
-81 -82 -89 0
81 82 -89 0
-81 82 89 0
83 -84 90 0
-83 -84 -90 0
83 84 -90 0
-83 84 90 0
85 -86 91 0
-85 -86 -91 0
85 86 -91 0
-85 86 91 0
87 -88 92 0
-87 -88 -92 0
87 88 -92 0
-87 88 92 0
89 -90 93 0
-89 -90 -93 0
89 90 -93 0
-89 90 93 0
91 -92 94 0
-91 -92 -94 0
91 92 -94 0
-91 92 94 0
93 94 0
-93 -94 0
-1 -2 95 0
1 -2 -95 0
-1 2 -95 0
1 2 95 0
3 -4 96 0
-3 -4 -96 0
3 4 -96 0
-3 4 96 0
-6 -7 97 0
6 -7 -97 0
-6 7 -97 0
6 7 97 0
-9 -10 98 0
9 -10 -98 0
-9 10 -98 0
9 10 98 0
-11 -15 99 0
11 -15 -99 0
-11 15 -99 0
11 15 99 0
-17 -18 100 0
17 -18 -100 0
-17 18 -100 0
17 18 100 0
-20 -21 101 0
20 -21 -101 0
-20 21 -101 0
20 21 101 0
22 23 102 0
-22 23 -102 0
22 -23 -102 0
-22 -23 102 0
24 -26 103 0
-24 -26 -103 0
24 26 -103 0
-24 26 103 0
27 -28 104 0
-27 -28 -104 0
27 28 -104 0
-27 28 104 0
-29 31 105 0
29 31 -105 0
-29 -31 -105 0
29 -31 105 0
33 -37 106 0
-33 -37 -106 0
33 37 -106 0
-33 37 106 0
-41 44 107 0
41 44 -107 0
-41 -44 -107 0
41 -44 107 0
45 -46 108 0
-45 -46 -108 0
45 46 -108 0
-45 46 108 0
94 -95 109 0
-94 -95 -109 0
94 95 -109 0
-94 95 109 0
96 -97 110 0
-96 -97 -110 0
96 97 -110 0
-96 97 110 0
98 -99 111 0
-98 -99 -111 0
98 99 -111 0
-98 99 111 0
100 -101 112 0
-100 -101 -112 0
100 101 -112 0
-100 101 112 0
102 -103 113 0
-102 -103 -113 0
102 103 -113 0
-102 103 113 0
104 -105 114 0
-104 -105 -114 0
104 105 -114 0
-104 105 114 0
106 -107 115 0
-106 -107 -115 0
106 107 -115 0
-106 107 115 0
108 -109 116 0
-108 -109 -116 0
108 109 -116 0
-108 109 116 0
110 -111 117 0
-110 -111 -117 0
110 111 -117 0
-110 111 117 0
112 -113 118 0
-112 -113 -118 0
112 113 -118 0
-112 113 118 0
114 -115 119 0
-114 -115 -119 0
114 115 -119 0
-114 115 119 0
116 -117 120 0
-116 -117 -120 0
116 117 -120 0
-116 117 120 0
118 -119 121 0
-118 -119 -121 0
118 119 -121 0
-118 119 121 0
120 121 0
-120 -121 0
1 3 122 0
-1 3 -122 0
1 -3 -122 0
-1 -3 122 0
-4 5 123 0
4 5 -123 0
-4 -5 -123 0
4 -5 123 0
-10 -12 124 0
10 -12 -124 0
-10 12 -124 0
10 12 124 0
-15 18 125 0
15 18 -125 0
-15 -18 -125 0
15 -18 125 0
-21 23 126 0
21 23 -126 0
-21 -23 -126 0
21 -23 126 0
24 -26 127 0
-24 -26 -127 0
24 26 -127 0
-24 26 127 0
27 -31 128 0
-27 -31 -128 0
27 31 -128 0
-27 31 128 0
32 33 129 0
-32 33 -129 0
32 -33 -129 0
-32 -33 129 0
-34 35 130 0
34 35 -130 0
-34 -35 -130 0
34 -35 130 0
-37 -40 131 0
37 -40 -131 0
-37 40 -131 0
37 40 131 0
-43 -44 132 0
43 -44 -132 0
-43 44 -132 0
43 44 132 0
-47 48 133 0
47 48 -133 0
-47 -48 -133 0
47 -48 133 0
-49 -50 134 0
49 -50 -134 0
-49 50 -134 0
49 50 134 0
122 -123 135 0
-122 -123 -135 0
122 123 -135 0
-122 123 135 0
124 -125 136 0
-124 -125 -136 0
124 125 -136 0
-124 125 136 0
126 -127 137 0
-126 -127 -137 0
126 127 -137 0
-126 127 137 0
128 -129 138 0
-128 -129 -138 0
128 129 -138 0
-128 129 138 0
130 -131 139 0
-130 -131 -139 0
130 131 -139 0
-130 131 139 0
132 -133 140 0
-132 -133 -140 0
132 133 -140 0
-132 133 140 0
134 -135 141 0
-134 -135 -141 0
134 135 -141 0
-134 135 141 0
136 -137 142 0
-136 -137 -142 0
136 137 -142 0
-136 137 142 0
138 -139 143 0
-138 -139 -143 0
138 139 -143 0
-138 139 143 0
140 -141 144 0
-140 -141 -144 0
140 141 -144 0
-140 141 144 0
142 -143 145 0
-142 -143 -145 0
142 143 -145 0
-142 143 145 0
144 145 0
-144 -145 0
4 5 146 0
-4 5 -146 0
4 -5 -146 0
-4 -5 146 0
7 -8 147 0
-7 -8 -147 0
7 8 -147 0
-7 8 147 0
10 12 148 0
-10 12 -148 0
10 -12 -148 0
-10 -12 148 0
-13 -14 149 0
13 -14 -149 0
-13 14 -149 0
13 14 149 0
-16 -17 150 0
16 -17 -150 0
-16 17 -150 0
16 17 150 0
-18 -19 151 0
18 -19 -151 0
-18 19 -151 0
18 19 151 0
20 -21 152 0
-20 -21 -152 0
20 21 -152 0
-20 21 152 0
-22 26 153 0
22 26 -153 0
-22 -26 -153 0
22 -26 153 0
27 30 154 0
-27 30 -154 0
27 -30 -154 0
-27 -30 154 0
32 35 155 0
-32 35 -155 0
32 -35 -155 0
-32 -35 155 0
-40 42 156 0
40 42 -156 0
-40 -42 -156 0
40 -42 156 0
-43 45 157 0
43 45 -157 0
-43 -45 -157 0
43 -45 157 0
-46 48 158 0
46 48 -158 0
-46 -48 -158 0
46 -48 158 0
145 -146 159 0
-145 -146 -159 0
145 146 -159 0
-145 146 159 0
147 -148 160 0
-147 -148 -160 0
147 148 -160 0
-147 148 160 0
149 -150 161 0
-149 -150 -161 0
149 150 -161 0
-149 150 161 0
151 -152 162 0
-151 -152 -162 0
151 152 -162 0
-151 152 162 0
153 -154 163 0
-153 -154 -163 0
153 154 -163 0
-153 154 163 0
155 -156 164 0
-155 -156 -164 0
155 156 -164 0
-155 156 164 0
157 -158 165 0
-157 -158 -165 0
157 158 -165 0
-157 158 165 0
159 -160 166 0
-159 -160 -166 0
159 160 -166 0
-159 160 166 0
161 -162 167 0
-161 -162 -167 0
161 162 -167 0
-161 162 167 0
163 -164 168 0
-163 -164 -168 0
163 164 -168 0
-163 164 168 0
165 -166 169 0
-165 -166 -169 0
165 166 -169 0
-165 166 169 0
167 -168 170 0
-167 -168 -170 0
167 168 -170 0
-167 168 170 0
169 170 0
-169 -170 0
-1 2 171 0
1 2 -171 0
-1 -2 -171 0
1 -2 171 0
-4 -7 172 0
4 -7 -172 0
-4 7 -172 0
4 7 172 0
12 -13 173 0
-12 -13 -173 0
12 13 -173 0
-12 13 173 0
-14 -18 174 0
14 -18 -174 0
-14 18 -174 0
14 18 174 0
-19 -20 175 0
19 -20 -175 0
-19 20 -175 0
19 20 175 0
-21 22 176 0
21 22 -176 0
-21 -22 -176 0
21 -22 176 0
30 -31 177 0
-30 -31 -177 0
30 31 -177 0
-30 31 177 0
-33 34 178 0
33 34 -178 0
-33 -34 -178 0
33 -34 178 0
-37 -38 179 0
37 -38 -179 0
-37 38 -179 0
37 38 179 0
40 42 180 0
-40 42 -180 0
40 -42 -180 0
-40 -42 180 0
-44 45 181 0
44 45 -181 0
-44 -45 -181 0
44 -45 181 0
46 47 182 0
-46 47 -182 0
46 -47 -182 0
-46 -47 182 0
170 -171 183 0
-170 -171 -183 0
170 171 -183 0
-170 171 183 0
172 -173 184 0
-172 -173 -184 0
172 173 -184 0
-172 173 184 0
174 -175 185 0
-174 -175 -185 0
174 175 -185 0
-174 175 185 0
176 -177 186 0
-176 -177 -186 0
176 177 -186 0
-176 177 186 0
178 -179 187 0
-178 -179 -187 0
178 179 -187 0
-178 179 187 0
180 -181 188 0
-180 -181 -188 0
180 181 -188 0
-180 181 188 0
182 -183 189 0
-182 -183 -189 0
182 183 -189 0
-182 183 189 0
184 -185 190 0
-184 -185 -190 0
184 185 -190 0
-184 185 190 0
186 -187 191 0
-186 -187 -191 0
186 187 -191 0
-186 187 191 0
188 -189 192 0
-188 -189 -192 0
188 189 -192 0
-188 189 192 0
190 -191 193 0
-190 -191 -193 0
190 191 -193 0
-190 191 193 0
192 193 0
-192 -193 0
-2 -4 194 0
2 -4 -194 0
-2 4 -194 0
2 4 194 0
-5 -7 195 0
5 -7 -195 0
-5 7 -195 0
5 7 195 0
8 -9 196 0
-8 -9 -196 0
8 9 -196 0
-8 9 196 0
-10 -11 197 0
10 -11 -197 0
-10 11 -197 0
10 11 197 0
13 -15 198 0
-13 -15 -198 0
13 15 -198 0
-13 15 198 0
16 -17 199 0
-16 -17 -199 0
16 17 -199 0
-16 17 199 0
-18 19 200 0
18 19 -200 0
-18 -19 -200 0
18 -19 200 0
20 22 201 0
-20 22 -201 0
20 -22 -201 0
-20 -22 201 0
-23 28 202 0
23 28 -202 0
-23 -28 -202 0
23 -28 202 0
-31 36 203 0
31 36 -203 0
-31 -36 -203 0
31 -36 203 0
37 39 204 0
-37 39 -204 0
37 -39 -204 0
-37 -39 204 0
-40 41 205 0
40 41 -205 0
-40 -41 -205 0
40 -41 205 0
42 43 206 0
-42 43 -206 0
42 -43 -206 0
-42 -43 206 0
-44 -45 207 0
44 -45 -207 0
-44 45 -207 0
44 45 207 0
-46 -48 208 0
46 -48 -208 0
-46 48 -208 0
46 48 208 0
193 -194 209 0
-193 -194 -209 0
193 194 -209 0
-193 194 209 0
195 -196 210 0
-195 -196 -210 0
195 196 -210 0
-195 196 210 0
197 -198 211 0
-197 -198 -211 0
197 198 -211 0
-197 198 211 0
199 -200 212 0
-199 -200 -212 0
199 200 -212 0
-199 200 212 0
201 -202 213 0
-201 -202 -213 0
201 202 -213 0
-201 202 213 0
203 -204 214 0
-203 -204 -214 0
203 204 -214 0
-203 204 214 0
205 -206 215 0
-205 -206 -215 0
205 206 -215 0
-205 206 215 0
207 -208 216 0
-207 -208 -216 0
207 208 -216 0
-207 208 216 0
209 -210 217 0
-209 -210 -217 0
209 210 -217 0
-209 210 217 0
211 -212 218 0
-211 -212 -218 0
211 212 -218 0
-211 212 218 0
213 -214 219 0
-213 -214 -219 0
213 214 -219 0
-213 214 219 0
215 -216 220 0
-215 -216 -220 0
215 216 -220 0
-215 216 220 0
217 -218 221 0
-217 -218 -221 0
217 218 -221 0
-217 218 221 0
219 -220 222 0
-219 -220 -222 0
219 220 -222 0
-219 220 222 0
221 222 0
-221 -222 0
-2 -3 223 0
2 -3 -223 0
-2 3 -223 0
2 3 223 0
-4 -5 224 0
4 -5 -224 0
-4 5 -224 0
4 5 224 0
-6 -7 225 0
6 -7 -225 0
-6 7 -225 0
6 7 225 0
-8 9 226 0
8 9 -226 0
-8 -9 -226 0
8 -9 226 0
-10 -11 227 0
10 -11 -227 0
-10 11 -227 0
10 11 227 0
-14 -15 228 0
14 -15 -228 0
-14 15 -228 0
14 15 228 0
-16 17 229 0
16 17 -229 0
-16 -17 -229 0
16 -17 229 0
20 -21 230 0
-20 -21 -230 0
20 21 -230 0
-20 21 230 0
-26 -27 231 0
26 -27 -231 0
-26 27 -231 0
26 27 231 0
-28 29 232 0
28 29 -232 0
-28 -29 -232 0
28 -29 232 0
-31 32 233 0
31 32 -233 0
-31 -32 -233 0
31 -32 233 0
34 -35 234 0
-34 -35 -234 0
34 35 -234 0
-34 35 234 0
-36 -37 235 0
36 -37 -235 0
-36 37 -235 0
36 37 235 0
39 -45 236 0
-39 -45 -236 0
39 45 -236 0
-39 45 236 0
-47 -48 237 0
47 -48 -237 0
-47 48 -237 0
47 48 237 0
222 -223 238 0
-222 -223 -238 0
222 223 -238 0
-222 223 238 0
224 -225 239 0
-224 -225 -239 0
224 225 -239 0
-224 225 239 0
226 -227 240 0
-226 -227 -240 0
226 227 -240 0
-226 227 240 0
228 -229 241 0
-228 -229 -241 0
228 229 -241 0
-228 229 241 0
230 -231 242 0
-230 -231 -242 0
230 231 -242 0
-230 231 242 0
232 -233 243 0
-232 -233 -243 0
232 233 -243 0
-232 233 243 0
234 -235 244 0
-234 -235 -244 0
234 235 -244 0
-234 235 244 0
236 -237 245 0
-236 -237 -245 0
236 237 -245 0
-236 237 245 0
238 -239 246 0
-238 -239 -246 0
238 239 -246 0
-238 239 246 0
240 -241 247 0
-240 -241 -247 0
240 241 -247 0
-240 241 247 0
242 -243 248 0
-242 -243 -248 0
242 243 -248 0
-242 243 248 0
244 -245 249 0
-244 -245 -249 0
244 245 -249 0
-244 245 249 0
246 -247 250 0
-246 -247 -250 0
246 247 -250 0
-246 247 250 0
248 -249 251 0
-248 -249 -251 0
248 249 -251 0
-248 249 251 0
250 251 0
-250 -251 0
3 7 252 0
-3 7 -252 0
3 -7 -252 0
-3 -7 252 0
10 -12 253 0
-10 -12 -253 0
10 12 -253 0
-10 12 253 0
13 14 254 0
-13 14 -254 0
13 -14 -254 0
-13 -14 254 0
-16 -20 255 0
16 -20 -255 0
-16 20 -255 0
16 20 255 0
-23 -24 256 0
23 -24 -256 0
-23 24 -256 0
23 24 256 0
26 28 257 0
-26 28 -257 0
26 -28 -257 0
-26 -28 257 0
-32 33 258 0
32 33 -258 0
-32 -33 -258 0
32 -33 258 0
-34 -37 259 0
34 -37 -259 0
-34 37 -259 0
34 37 259 0
39 40 260 0
-39 40 -260 0
39 -40 -260 0
-39 -40 260 0
251 -252 261 0
-251 -252 -261 0
251 252 -261 0
-251 252 261 0
253 -254 262 0
-253 -254 -262 0
253 254 -262 0
-253 254 262 0
255 -256 263 0
-255 -256 -263 0
255 256 -263 0
-255 256 263 0
257 -258 264 0
-257 -258 -264 0
257 258 -264 0
-257 258 264 0
259 -260 265 0
-259 -260 -265 0
259 260 -265 0
-259 260 265 0
261 -262 266 0
-261 -262 -266 0
261 262 -266 0
-261 262 266 0
263 -264 267 0
-263 -264 -267 0
263 264 -267 0
-263 264 267 0
-265 -266 267 0
265 -266 -267 0
-265 266 -267 0
265 266 267 0
-2 4 268 0
2 4 -268 0
-2 -4 -268 0
2 -4 268 0
5 12 269 0
-5 12 -269 0
5 -12 -269 0
-5 -12 269 0
-13 -18 270 0
13 -18 -270 0
-13 18 -270 0
13 18 270 0
-19 21 271 0
19 21 -271 0
-19 -21 -271 0
19 -21 271 0
-23 24 272 0
23 24 -272 0
-23 -24 -272 0
23 -24 272 0
-26 -30 273 0
26 -30 -273 0
-26 30 -273 0
26 30 273 0
-31 35 274 0
31 35 -274 0
-31 -35 -274 0
31 -35 274 0
-37 38 275 0
37 38 -275 0
-37 -38 -275 0
37 -38 275 0
39 43 276 0
-39 43 -276 0
39 -43 -276 0
-39 -43 276 0
44 -46 277 0
-44 -46 -277 0
44 46 -277 0
-44 46 277 0
-47 48 278 0
47 48 -278 0
-47 -48 -278 0
47 -48 278 0
268 -269 279 0
-268 -269 -279 0
268 269 -279 0
-268 269 279 0
270 -271 280 0
-270 -271 -280 0
270 271 -280 0
-270 271 280 0
272 -273 281 0
-272 -273 -281 0
272 273 -281 0
-272 273 281 0
274 -275 282 0
-274 -275 -282 0
274 275 -282 0
-274 275 282 0
276 -277 283 0
-276 -277 -283 0
276 277 -283 0
-276 277 283 0
278 -279 284 0
-278 -279 -284 0
278 279 -284 0
-278 279 284 0
280 -281 285 0
-280 -281 -285 0
280 281 -285 0
-280 281 285 0
282 -283 286 0
-282 -283 -286 0
282 283 -286 0
-282 283 286 0
-284 -285 286 0
284 -285 -286 0
-284 285 -286 0
284 285 286 0
-3 -8 287 0
3 -8 -287 0
-3 8 -287 0
3 8 287 0
12 -13 288 0
-12 -13 -288 0
12 13 -288 0
-12 13 288 0
-15 16 289 0
15 16 -289 0
-15 -16 -289 0
15 -16 289 0
17 22 290 0
-17 22 -290 0
17 -22 -290 0
-17 -22 290 0
26 28 291 0
-26 28 -291 0
26 -28 -291 0
-26 -28 291 0
-31 33 292 0
31 33 -292 0
-31 -33 -292 0
31 -33 292 0
34 38 293 0
-34 38 -293 0
34 -38 -293 0
-34 -38 293 0
-40 -41 294 0
40 -41 -294 0
-40 41 -294 0
40 41 294 0
43 44 295 0
-43 44 -295 0
43 -44 -295 0
-43 -44 295 0
-45 -46 296 0
45 -46 -296 0
-45 46 -296 0
45 46 296 0
47 -48 297 0
-47 -48 -297 0
47 48 -297 0
-47 48 297 0
-49 -50 298 0
49 -50 -298 0
-49 50 -298 0
49 50 298 0
287 -288 299 0
-287 -288 -299 0
287 288 -299 0
-287 288 299 0
289 -290 300 0
-289 -290 -300 0
289 290 -300 0
-289 290 300 0
291 -292 301 0
-291 -292 -301 0
291 292 -301 0
-291 292 301 0
293 -294 302 0
-293 -294 -302 0
293 294 -302 0
-293 294 302 0
295 -296 303 0
-295 -296 -303 0
295 296 -303 0
-295 296 303 0
297 -298 304 0
-297 -298 -304 0
297 298 -304 0
-297 298 304 0
299 -300 305 0
-299 -300 -305 0
299 300 -305 0
-299 300 305 0
301 -302 306 0
-301 -302 -306 0
301 302 -306 0
-301 302 306 0
303 -304 307 0
-303 -304 -307 0
303 304 -307 0
-303 304 307 0
-305 -306 307 0
305 -306 -307 0
-305 306 -307 0
305 306 307 0
-1 2 308 0
1 2 -308 0
-1 -2 -308 0
1 -2 308 0
-3 6 309 0
3 6 -309 0
-3 -6 -309 0
3 -6 309 0
7 9 310 0
-7 9 -310 0
7 -9 -310 0
-7 -9 310 0
-10 -12 311 0
10 -12 -311 0
-10 12 -311 0
10 12 311 0
-13 -14 312 0
13 -14 -312 0
-13 14 -312 0
13 14 312 0
-15 -16 313 0
15 -16 -313 0
-15 16 -313 0
15 16 313 0
-19 20 314 0
19 20 -314 0
-19 -20 -314 0
19 -20 314 0
21 23 315 0
-21 23 -315 0
21 -23 -315 0
-21 -23 315 0
-24 -25 316 0
24 -25 -316 0
-24 25 -316 0
24 25 316 0
-27 -28 317 0
27 -28 -317 0
-27 28 -317 0
27 28 317 0
31 34 318 0
-31 34 -318 0
31 -34 -318 0
-31 -34 318 0
35 -36 319 0
-35 -36 -319 0
35 36 -319 0
-35 36 319 0
38 40 320 0
-38 40 -320 0
38 -40 -320 0
-38 -40 320 0
-46 47 321 0
46 47 -321 0
-46 -47 -321 0
46 -47 321 0
308 -309 322 0
-308 -309 -322 0
308 309 -322 0
-308 309 322 0
310 -311 323 0
-310 -311 -323 0
310 311 -323 0
-310 311 323 0
312 -313 324 0
-312 -313 -324 0
312 313 -324 0
-312 313 324 0
314 -315 325 0
-314 -315 -325 0
314 315 -325 0
-314 315 325 0
316 -317 326 0
-316 -317 -326 0
316 317 -326 0
-316 317 326 0
318 -319 327 0
-318 -319 -327 0
318 319 -327 0
-318 319 327 0
320 -321 328 0
-320 -321 -328 0
320 321 -328 0
-320 321 328 0
322 -323 329 0
-322 -323 -329 0
322 323 -329 0
-322 323 329 0
324 -325 330 0
-324 -325 -330 0
324 325 -330 0
-324 325 330 0
326 -327 331 0
-326 -327 -331 0
326 327 -331 0
-326 327 331 0
328 -329 332 0
-328 -329 -332 0
328 329 -332 0
-328 329 332 0
330 -331 333 0
-330 -331 -333 0
330 331 -333 0
-330 331 333 0
332 333 0
-332 -333 0
4 -6 334 0
-4 -6 -334 0
4 6 -334 0
-4 6 334 0
7 -9 335 0
-7 -9 -335 0
7 9 -335 0
-7 9 335 0
11 12 336 0
-11 12 -336 0
11 -12 -336 0
-11 -12 336 0
-13 14 337 0
13 14 -337 0
-13 -14 -337 0
13 -14 337 0
15 16 338 0
-15 16 -338 0
15 -16 -338 0
-15 -16 338 0
17 19 339 0
-17 19 -339 0
17 -19 -339 0
-17 -19 339 0
-22 -28 340 0
22 -28 -340 0
-22 28 -340 0
22 28 340 0
29 -30 341 0
-29 -30 -341 0
29 30 -341 0
-29 30 341 0
32 33 342 0
-32 33 -342 0
32 -33 -342 0
-32 -33 342 0
34 -37 343 0
-34 -37 -343 0
34 37 -343 0
-34 37 343 0
39 40 344 0
-39 40 -344 0
39 -40 -344 0
-39 -40 344 0
-42 43 345 0
42 43 -345 0
-42 -43 -345 0
42 -43 345 0
44 -46 346 0
-44 -46 -346 0
44 46 -346 0
-44 46 346 0
-47 -48 347 0
47 -48 -347 0
-47 48 -347 0
47 48 347 0
333 -334 348 0
-333 -334 -348 0
333 334 -348 0
-333 334 348 0
335 -336 349 0
-335 -336 -349 0
335 336 -349 0
-335 336 349 0
337 -338 350 0
-337 -338 -350 0
337 338 -350 0
-337 338 350 0
339 -340 351 0
-339 -340 -351 0
339 340 -351 0
-339 340 351 0
341 -342 352 0
-341 -342 -352 0
341 342 -352 0
-341 342 352 0
343 -344 353 0
-343 -344 -353 0
343 344 -353 0
-343 344 353 0
345 -346 354 0
-345 -346 -354 0
345 346 -354 0
-345 346 354 0
347 -348 355 0
-347 -348 -355 0
347 348 -355 0
-347 348 355 0
349 -350 356 0
-349 -350 -356 0
349 350 -356 0
-349 350 356 0
351 -352 357 0
-351 -352 -357 0
351 352 -357 0
-351 352 357 0
353 -354 358 0
-353 -354 -358 0
353 354 -358 0
-353 354 358 0
355 -356 359 0
-355 -356 -359 0
355 356 -359 0
-355 356 359 0
357 -358 360 0
-357 -358 -360 0
357 358 -360 0
-357 358 360 0
359 360 0
-359 -360 0
2 -7 361 0
-2 -7 -361 0
2 7 -361 0
-2 7 361 0
-8 10 362 0
8 10 -362 0
-8 -10 -362 0
8 -10 362 0
11 12 363 0
-11 12 -363 0
11 -12 -363 0
-11 -12 363 0
13 14 364 0
-13 14 -364 0
13 -14 -364 0
-13 -14 364 0
15 -18 365 0
-15 -18 -365 0
15 18 -365 0
-15 18 365 0
21 22 366 0
-21 22 -366 0
21 -22 -366 0
-21 -22 366 0
-30 37 367 0
30 37 -367 0
-30 -37 -367 0
30 -37 367 0
-38 39 368 0
38 39 -368 0
-38 -39 -368 0
38 -39 368 0
40 -42 369 0
-40 -42 -369 0
40 42 -369 0
-40 42 369 0
44 50 370 0
-44 50 -370 0
44 -50 -370 0
-44 -50 370 0
361 -362 371 0
-361 -362 -371 0
361 362 -371 0
-361 362 371 0
363 -364 372 0
-363 -364 -372 0
363 364 -372 0
-363 364 372 0
365 -366 373 0
-365 -366 -373 0
365 366 -373 0
-365 366 373 0
367 -368 374 0
-367 -368 -374 0
367 368 -374 0
-367 368 374 0
369 -370 375 0
-369 -370 -375 0
369 370 -375 0
-369 370 375 0
371 -372 376 0
-371 -372 -376 0
371 372 -376 0
-371 372 376 0
373 -374 377 0
-373 -374 -377 0
373 374 -377 0
-373 374 377 0
-375 -376 377 0
375 -376 -377 0
-375 376 -377 0
375 376 377 0
1 -2 378 0
-1 -2 -378 0
1 2 -378 0
-1 2 378 0
-4 5 379 0
4 5 -379 0
-4 -5 -379 0
4 -5 379 0
-7 9 380 0
7 9 -380 0
-7 -9 -380 0
7 -9 380 0
10 -11 381 0
-10 -11 -381 0
10 11 -381 0
-10 11 381 0
12 -16 382 0
-12 -16 -382 0
12 16 -382 0
-12 16 382 0
-18 20 383 0
18 20 -383 0
-18 -20 -383 0
18 -20 383 0
21 -22 384 0
-21 -22 -384 0
21 22 -384 0
-21 22 384 0
23 -24 385 0
-23 -24 -385 0
23 24 -385 0
-23 24 385 0
-28 -30 386 0
28 -30 -386 0
-28 30 -386 0
28 30 386 0
-31 37 387 0
31 37 -387 0
-31 -37 -387 0
31 -37 387 0
-39 -40 388 0
39 -40 -388 0
-39 40 -388 0
39 40 388 0
-42 -43 389 0
42 -43 -389 0
-42 43 -389 0
42 43 389 0
44 45 390 0
-44 45 -390 0
44 -45 -390 0
-44 -45 390 0
46 -47 391 0
-46 -47 -391 0
46 47 -391 0
-46 47 391 0
-48 -50 392 0
48 -50 -392 0
-48 50 -392 0
48 50 392 0
378 -379 393 0
-378 -379 -393 0
378 379 -393 0
-378 379 393 0
380 -381 394 0
-380 -381 -394 0
380 381 -394 0
-380 381 394 0
382 -383 395 0
-382 -383 -395 0
382 383 -395 0
-382 383 395 0
384 -385 396 0
-384 -385 -396 0
384 385 -396 0
-384 385 396 0
386 -387 397 0
-386 -387 -397 0
386 387 -397 0
-386 387 397 0
388 -389 398 0
-388 -389 -398 0
388 389 -398 0
-388 389 398 0
390 -391 399 0
-390 -391 -399 0
390 391 -399 0
-390 391 399 0
392 -393 400 0
-392 -393 -400 0
392 393 -400 0
-392 393 400 0
394 -395 401 0
-394 -395 -401 0
394 395 -401 0
-394 395 401 0
396 -397 402 0
-396 -397 -402 0
396 397 -402 0
-396 397 402 0
398 -399 403 0
-398 -399 -403 0
398 399 -403 0
-398 399 403 0
400 -401 404 0
-400 -401 -404 0
400 401 -404 0
-400 401 404 0
402 -403 405 0
-402 -403 -405 0
402 403 -405 0
-402 403 405 0
404 405 0
-404 -405 0
3 -4 406 0
-3 -4 -406 0
3 4 -406 0
-3 4 406 0
-5 -6 407 0
5 -6 -407 0
-5 6 -407 0
5 6 407 0
-8 9 408 0
8 9 -408 0
-8 -9 -408 0
8 -9 408 0
-10 -16 409 0
10 -16 -409 0
-10 16 -409 0
10 16 409 0
18 -19 410 0
-18 -19 -410 0
18 19 -410 0
-18 19 410 0
21 -22 411 0
-21 -22 -411 0
21 22 -411 0
-21 22 411 0
-23 24 412 0
23 24 -412 0
-23 -24 -412 0
23 -24 412 0
26 27 413 0
-26 27 -413 0
26 -27 -413 0
-26 -27 413 0
29 31 414 0
-29 31 -414 0
29 -31 -414 0
-29 -31 414 0
33 37 415 0
-33 37 -415 0
33 -37 -415 0
-33 -37 415 0
-39 -40 416 0
39 -40 -416 0
-39 40 -416 0
39 40 416 0
44 -50 417 0
-44 -50 -417 0
44 50 -417 0
-44 50 417 0
406 -407 418 0
-406 -407 -418 0
406 407 -418 0
-406 407 418 0
408 -409 419 0
-408 -409 -419 0
408 409 -419 0
-408 409 419 0
410 -411 420 0
-410 -411 -420 0
410 411 -420 0
-410 411 420 0
412 -413 421 0
-412 -413 -421 0
412 413 -421 0
-412 413 421 0
414 -415 422 0
-414 -415 -422 0
414 415 -422 0
-414 415 422 0
416 -417 423 0
-416 -417 -423 0
416 417 -423 0
-416 417 423 0
418 -419 424 0
-418 -419 -424 0
418 419 -424 0
-418 419 424 0
420 -421 425 0
-420 -421 -425 0
420 421 -425 0
-420 421 425 0
422 -423 426 0
-422 -423 -426 0
422 423 -426 0
-422 423 426 0
-424 -425 426 0
424 -425 -426 0
-424 425 -426 0
424 425 426 0
2 3 427 0
-2 3 -427 0
2 -3 -427 0
-2 -3 427 0
4 5 428 0
-4 5 -428 0
4 -5 -428 0
-4 -5 428 0
8 -10 429 0
-8 -10 -429 0
8 10 -429 0
-8 10 429 0
13 -17 430 0
-13 -17 -430 0
13 17 -430 0
-13 17 430 0
-19 20 431 0
19 20 -431 0
-19 -20 -431 0
19 -20 431 0
22 -23 432 0
-22 -23 -432 0
22 23 -432 0
-22 23 432 0
25 -27 433 0
-25 -27 -433 0
25 27 -433 0
-25 27 433 0
-28 29 434 0
28 29 -434 0
-28 -29 -434 0
28 -29 434 0
-32 -33 435 0
32 -33 -435 0
-32 33 -435 0
32 33 435 0
36 37 436 0
-36 37 -436 0
36 -37 -436 0
-36 -37 436 0
39 -41 437 0
-39 -41 -437 0
39 41 -437 0
-39 41 437 0
42 -43 438 0
-42 -43 -438 0
42 43 -438 0
-42 43 438 0
46 -48 439 0
-46 -48 -439 0
46 48 -439 0
-46 48 439 0
426 -427 440 0
-426 -427 -440 0
426 427 -440 0
-426 427 440 0
428 -429 441 0
-428 -429 -441 0
428 429 -441 0
-428 429 441 0
430 -431 442 0
-430 -431 -442 0
430 431 -442 0
-430 431 442 0
432 -433 443 0
-432 -433 -443 0
432 433 -443 0
-432 433 443 0
434 -435 444 0
-434 -435 -444 0
434 435 -444 0
-434 435 444 0
436 -437 445 0
-436 -437 -445 0
436 437 -445 0
-436 437 445 0
438 -439 446 0
-438 -439 -446 0
438 439 -446 0
-438 439 446 0
440 -441 447 0
-440 -441 -447 0
440 441 -447 0
-440 441 447 0
442 -443 448 0
-442 -443 -448 0
442 443 -448 0
-442 443 448 0
444 -445 449 0
-444 -445 -449 0
444 445 -449 0
-444 445 449 0
446 -447 450 0
-446 -447 -450 0
446 447 -450 0
-446 447 450 0
448 -449 451 0
-448 -449 -451 0
448 449 -451 0
-448 449 451 0
450 451 0
-450 -451 0
-2 -3 452 0
2 -3 -452 0
-2 3 -452 0
2 3 452 0
-5 7 453 0
5 7 -453 0
-5 -7 -453 0
5 -7 453 0
8 10 454 0
-8 10 -454 0
8 -10 -454 0
-8 -10 454 0
11 12 455 0
-11 12 -455 0
11 -12 -455 0
-11 -12 455 0
-13 15 456 0
13 15 -456 0
-13 -15 -456 0
13 -15 456 0
-20 21 457 0
20 21 -457 0
-20 -21 -457 0
20 -21 457 0
-23 -24 458 0
23 -24 -458 0
-23 24 -458 0
23 24 458 0
-25 28 459 0
25 28 -459 0
-25 -28 -459 0
25 -28 459 0
29 -30 460 0
-29 -30 -460 0
29 30 -460 0
-29 30 460 0
-33 -34 461 0
33 -34 -461 0
-33 34 -461 0
33 34 461 0
-35 -36 462 0
35 -36 -462 0
-35 36 -462 0
35 36 462 0
38 39 463 0
-38 39 -463 0
38 -39 -463 0
-38 -39 463 0
40 -43 464 0
-40 -43 -464 0
40 43 -464 0
-40 43 464 0
45 -46 465 0
-45 -46 -465 0
45 46 -465 0
-45 46 465 0
47 -50 466 0
-47 -50 -466 0
47 50 -466 0
-47 50 466 0
452 -453 467 0
-452 -453 -467 0
452 453 -467 0
-452 453 467 0
454 -455 468 0
-454 -455 -468 0
454 455 -468 0
-454 455 468 0
456 -457 469 0
-456 -457 -469 0
456 457 -469 0
-456 457 469 0
458 -459 470 0
-458 -459 -470 0
458 459 -470 0
-458 459 470 0
460 -461 471 0
-460 -461 -471 0
460 461 -471 0
-460 461 471 0
462 -463 472 0
-462 -463 -472 0
462 463 -472 0
-462 463 472 0
464 -465 473 0
-464 -465 -473 0
464 465 -473 0
-464 465 473 0
466 -467 474 0
-466 -467 -474 0
466 467 -474 0
-466 467 474 0
468 -469 475 0
-468 -469 -475 0
468 469 -475 0
-468 469 475 0
470 -471 476 0
-470 -471 -476 0
470 471 -476 0
-470 471 476 0
472 -473 477 0
-472 -473 -477 0
472 473 -477 0
-472 473 477 0
474 -475 478 0
-474 -475 -478 0
474 475 -478 0
-474 475 478 0
476 -477 479 0
-476 -477 -479 0
476 477 -479 0
-476 477 479 0
478 479 0
-478 -479 0
4 5 480 0
-4 5 -480 0
4 -5 -480 0
-4 -5 480 0
8 -13 481 0
-8 -13 -481 0
8 13 -481 0
-8 13 481 0
-15 -20 482 0
15 -20 -482 0
-15 20 -482 0
15 20 482 0
23 24 483 0
-23 24 -483 0
23 -24 -483 0
-23 -24 483 0
26 -30 484 0
-26 -30 -484 0
26 30 -484 0
-26 30 484 0
-35 -36 485 0
35 -36 -485 0
-35 36 -485 0
35 36 485 0
-38 -39 486 0
38 -39 -486 0
-38 39 -486 0
38 39 486 0
-40 41 487 0
40 41 -487 0
-40 -41 -487 0
40 -41 487 0
-43 -45 488 0
43 -45 -488 0
-43 45 -488 0
43 45 488 0
479 -480 489 0
-479 -480 -489 0
479 480 -489 0
-479 480 489 0
481 -482 490 0
-481 -482 -490 0
481 482 -490 0
-481 482 490 0
483 -484 491 0
-483 -484 -491 0
483 484 -491 0
-483 484 491 0
485 -486 492 0
-485 -486 -492 0
485 486 -492 0
-485 486 492 0
487 -488 493 0
-487 -488 -493 0
487 488 -493 0
-487 488 493 0
489 -490 494 0
-489 -490 -494 0
489 490 -494 0
-489 490 494 0
491 -492 495 0
-491 -492 -495 0
491 492 -495 0
-491 492 495 0
-493 -494 495 0
493 -494 -495 0
-493 494 -495 0
493 494 495 0
2 -4 496 0
-2 -4 -496 0
2 4 -496 0
-2 4 496 0
-6 8 497 0
6 8 -497 0
-6 -8 -497 0
6 -8 497 0
-11 -15 498 0
11 -15 -498 0
-11 15 -498 0
11 15 498 0
-23 25 499 0
23 25 -499 0
-23 -25 -499 0
23 -25 499 0
-26 28 500 0
26 28 -500 0
-26 -28 -500 0
26 -28 500 0
-30 36 501 0
30 36 -501 0
-30 -36 -501 0
30 -36 501 0
41 -43 502 0
-41 -43 -502 0
41 43 -502 0
-41 43 502 0
495 -496 503 0
-495 -496 -503 0
495 496 -503 0
-495 496 503 0
497 -498 504 0
-497 -498 -504 0
497 498 -504 0
-497 498 504 0
499 -500 505 0
-499 -500 -505 0
499 500 -505 0
-499 500 505 0
501 -502 506 0
-501 -502 -506 0
501 502 -506 0
-501 502 506 0
503 -504 507 0
-503 -504 -507 0
503 504 -507 0
-503 504 507 0
505 -506 508 0
-505 -506 -508 0
505 506 -508 0
-505 506 508 0
507 508 0
-507 -508 0
